<?xml version = "1.0" standalone="yes"?>
<!-- This file has been generated by DOcplex version 2.23.222  -->
<CPLEXSolution version="1.0">
 <header
   problemName="CVRP"
   objectiveValue="18098"
  />
 <variables>
  <variable name="x_0_2" index="1" value="1.00000"/>
  <variable name="x_0_4" index="3" value="1.00000"/>
  <variable name="x_0_5" index="4" value="1.00000"/>
  <variable name="x_0_6" index="5" value="1.00000"/>
  <variable name="x_0_7" index="6" value="1.00000"/>
  <variable name="x_0_9" index="8" value="1.00000"/>
  <variable name="x_0_10" index="9" value="1.00000"/>
  <variable name="x_0_11" index="10" value="1.00000"/>
  <variable name="x_0_13" index="12" value="1.00000"/>
  <variable name="x_0_14" index="13" value="1.00000"/>
  <variable name="x_0_19" index="18" value="1.00000"/>
  <variable name="x_0_20" index="19" value="1.00000"/>
  <variable name="x_0_22" index="21" value="1.00000"/>
  <variable name="x_0_23" index="22" value="1.00000"/>
  <variable name="x_0_24" index="23" value="1.00000"/>
  <variable name="x_0_25" index="24" value="1.00000"/>
  <variable name="x_0_26" index="25" value="1.00000"/>
  <variable name="x_0_27" index="26" value="1.00000"/>
  <variable name="x_0_28" index="27" value="1.00000"/>
  <variable name="x_1_0" index="30" value="1.00000"/>
  <variable name="x_2_0" index="60" value="1.00000"/>
  <variable name="x_3_21" index="110" value="1.00000"/>
  <variable name="x_4_0" index="120" value="1.00000"/>
  <variable name="x_5_0" index="150" value="1.00000"/>
  <variable name="x_6_29" index="208" value="1.00000"/>
  <variable name="x_7_0" index="210" value="1.00000"/>
  <variable name="x_8_17" index="256" value="1.00000"/>
  <variable name="x_9_0" index="270" value="1.00000"/>
  <variable name="x_10_0" index="300" value="1.00000"/>
  <variable name="x_11_15" index="344" value="1.00000"/>
  <variable name="x_12_0" index="360" value="1.00000"/>
  <variable name="x_13_30" index="419" value="1.00000"/>
  <variable name="x_14_0" index="420" value="1.00000"/>
  <variable name="x_15_0" index="450" value="1.00000"/>
  <variable name="x_16_0" index="480" value="1.00000"/>
  <variable name="x_17_16" index="526" value="1.00000"/>
  <variable name="x_18_0" index="540" value="1.00000"/>
  <variable name="x_19_3" index="573" value="1.00000"/>
  <variable name="x_20_0" index="600" value="1.00000"/>
  <variable name="x_21_0" index="630" value="1.00000"/>
  <variable name="x_22_12" index="672" value="1.00000"/>
  <variable name="x_23_0" index="690" value="1.00000"/>
  <variable name="x_24_8" index="728" value="1.00000"/>
  <variable name="x_25_1" index="751" value="1.00000"/>
  <variable name="x_26_18" index="798" value="1.00000"/>
  <variable name="x_27_0" index="810" value="1.00000"/>
  <variable name="x_28_0" index="840" value="1.00000"/>
  <variable name="x_29_0" index="870" value="1.00000"/>
  <variable name="x_30_0" index="900" value="1.00000"/>
  <variable name="u_1" index="930" value="43.00000"/>
  <variable name="u_2" index="931" value="43.00000"/>
  <variable name="u_3" index="932" value="29.00000"/>
  <variable name="u_4" index="933" value="43.00000"/>
  <variable name="u_5" index="934" value="32.00000"/>
  <variable name="u_6" index="935" value="1.00000"/>
  <variable name="u_7" index="936" value="40.00000"/>
  <variable name="u_8" index="937" value="3.00000"/>
  <variable name="u_9" index="938" value="31.00000"/>
  <variable name="u_10" index="939" value="33.00000"/>
  <variable name="u_11" index="940" value="7.00000"/>
  <variable name="u_12" index="941" value="43.00000"/>
  <variable name="u_13" index="942" value="9.00000"/>
  <variable name="u_14" index="943" value="43.00000"/>
  <variable name="u_15" index="944" value="43.00000"/>
  <variable name="u_16" index="945" value="39.00000"/>
  <variable name="u_17" index="946" value="35.00000"/>
  <variable name="u_18" index="947" value="43.00000"/>
  <variable name="u_19" index="948" value="27.00000"/>
  <variable name="u_20" index="949" value="32.00000"/>
  <variable name="u_21" index="950" value="43.00000"/>
  <variable name="u_22" index="951" value="13.00000"/>
  <variable name="u_23" index="952" value="37.00000"/>
  <variable name="u_24" index="953" value="2.00000"/>
  <variable name="u_25" index="954" value="37.00000"/>
  <variable name="u_26" index="955" value="23.00000"/>
  <variable name="u_27" index="956" value="43.00000"/>
  <variable name="u_28" index="957" value="43.00000"/>
  <variable name="u_29" index="958" value="35.00000"/>
  <variable name="u_30" index="959" value="40.00000"/>
 </variables>
</CPLEXSolution>
